db/data/1764299001677136641904410544471727179.z3.out
sat
-------------------
1022.489481155
